000 000 000 000 000 000 000 000 000 000 000 000 000 000 000 -99 -99 -99 000 000 000 000 -99 000 000 -99 -99 -99 -99 -99 -99
000 000 000 000 000 000 000 000 000 000 000 000 -99 000 000 000 -99 -99 -99 000 000 000 000 000 000 -99 -99 -99 -99 -99 -99
000 000 000 000 000 000 000 000 000 000 000 000 -99 -99 000 000 -99 -99 -99 -99 -99 000 000 000 000 000 -99 -99 000 -99 -99
000 000 000 000 000 000 000 000 000 000 000 000 000 -99 -99 -99 -99 -99 -99 -99 -99 000 000 000 000 -99 -99 -99 -99 -99 -99
000 000 000 000 000 000 000 000 000 000 000 000 000 -99 -99 -99 -99 -99 -99 -99 000 000 000 000 000 000 -99 -99 -99 -99 000
000 000 000 000 000 000 000 000 000 000 000 000 000 000 -99 -99 000 000 -99 -99 000 000 000 000 000 -99 -99 -99 -99 -99 000
000 000 000 000 000 000 000 000 000 000 -99 -99 000 000 -99 000 000 000 -99 -99 000 000 000 000 000 -99 -99 -99 -99 -99 -99
000 000 000 000 000 000 000 000 000 000 -99 -99 -99 -99 000 000 000 000 -99 -99 000 000 000 000 000 -99 -99 -99 -99 -99 000
000 000 000 000 000 000 000 000 000 000 000 -99 -99 -99 -99 000 000 000 -99 -99 000 000 000 000 000 -99 -99 -99 -99 -99 000
000 000 000 000 000 000 000 000 000 000 000 -99 -99 -99 000 000 000 000 -99 -99 000 000 000 -99 000 000 -99 000 -99 000 -99
000 000 000 000 000 000 000 000 000 000 000 000 -99 001 000 000 000 000 000 -99 000 000 -99 -99 000 000 -99 000 000 000 000
000 000 000 000 000 000 000 000 000 -99 000 000 -99 002 000 000 -99 000 000 -99 -99 -99 -99 000 000 -99 000 000 000 000 000
-99 000 000 000 000 000 000 000 -99 000 000 000 -99 -99 000 000 000 000 000 000 -99 000 -99 000 000 -99 000 000 000 000 000
000 000 000 000 000 000 000 000 -99 -99 -99 -99 -99 -99 -99 000 000 -99 000 000 -99 000 -99 000 000 000 000 000 000 000 000
000 000 000 -99 000 000 000 -99 000 -99 -99 -99 -99 000 -99 000 000 000 000 -99 -99 000 -99 000 000 000 000 000 000 000 000
000 000 000 000 000 000 000 000 000 -99 -99 -99 -99 000 000 -99 000 000 000 -99 -99 -99 -99 -99 000 000 000 000 000 000 -99
000 000 000 000 000 000 000 000 000 -99 -99 -99 -99 000 000 -99 000 000 000 -99 -99 -99 -99 -99 -99 000 000 000 000 -99 000
000 000 000 000 000 000 000 000 000 000 -99 -99 -99 000 000 -99 000 000 000 -99 -99 000 000 -99 -99 -99 -99 -99 -99 -99 000
000 000 000 000 -99 -99 000 000 000 -99 -99 000 -99 000 000 000 000 000 000 -99 000 000 000 -99 -99 000 000 -99 -99 -99 000
000 000 000 000 -99 -99 -99 000 000 -99 000 000 -99 -99 000 000 000 000 000 -99 000 000 000 -99 -99 -99 -99 -99 -99 -99 -99
000 000 000 000 000 -99 -99 -99 -99 -99 -99 -99 -99 -99 000 000 000 000 000 -99 000 000 000 -99 -99 -99 -99 -99 -99 -99 -99
000 000 000 000 000 000 -99 -99 000 -99 -99 -99 -99 -99 000 000 000 000 000 000 000 000 000 -99 -99 -99 -99 -99 -99 -99 -99
000 000 000 000 000 000 -99 000 000 -99 -99 -99 -99 000 000 000 000 000 000 000 000 000 000 -99 -99 -99 -99 -99 -99 -99 -99
000 000 000 000 000 000 000 000 000 -99 -99 -99 000 000 000 000 000 000 000 000 000 000 000 -99 -99 -99 -99 -99 -99 -99 -99
000 000 000 000 000 000 000 000 000 000 -99 -99 000 000 000 000 000 000 000 000 000 000 000 -99 -99 -99 -99 -99 -99 -99 -99
000 000 000 000 000 000 000 000 000 000 -99 -99 -99 000 000 000 000 000 000 000 000 000 000 -99 -99 -99 -99 -99 -99 -99 000
000 000 000 000 000 000 000 000 000 000 -99 -99 -99 -99 000 000 000 000 000 000 000 000 000 -99 -99 -99 -99 -99 -99 -99 000
000 000 000 000 000 000 000 000 000 000 -99 -99 -99 -99 000 000 000 000 000 000 000 000 000 -99 -99 -99 -99 -99 -99 -99 000
000 000 000 000 000 000 000 000 000 000 -99 -99 -99 000 000 000 000 000 000 000 000 000 -99 -99 -99 -99 -99 -99 -99 -99 000
000 000 000 000 000 000 000 000 000 000 000 -99 -99 000 000 000 000 000 000 000 000 000 -99 001 001 001 001 -99 -99 -99 001
000 000 000 000 000 000 000 000 000 000 -99 -99 -99 000 000 000 000 000 000 000 000 000 000 001 001 001 001 -99 -99 -99 005
000 000 000 000 000 000 000 000 000 000 -99 -99 -99 000 -99 -99 000 000 000 000 000 000 000 001 002 001 002 001 002 004 006
000 000 000 000 000 000 000 000 000 000 -99 -99 -99 000 000 -99 000 000 000 000 000 000 000 001 002 001 003 002 003 006 011
000 000 000 000 000 000 000 000 000 -99 -99 -99 -99 000 000 000 000 000 000 000 000 000 000 001 001 005 011 003 004 010 019
000 000 000 000 000 000 000 000 000 -99 -99 -99 -99 000 000 000 000 000 000 000 000 001 000 000 001 004 007 005 005 012 024
000 000 -99 000 000 000 000 000 000 000 000 -99 000 000 000 000 000 000 000 000 001 001 001 001 003 003 005 009 012 021 044
000 000 -99 000 000 -99 -99 000 000 -99 000 -99 000 000 000 000 000 000 000 001 001 001 001 001 004 002 005 010 011 033 030
000 -99 -99 000 000 -99 -99 000 000 -99 -99 000 000 000 000 000 000 000 000 000 001 001 003 001 003 003 006 010 010 021 028
000 000 000 000 -99 -99 000 000 -99 -99 -99 000 000 000 000 000 000 000 000 000 000 001 001 000 002 001 005 007 010 018 020
000 000 000 000 -99 -99 000 000 -99 -99 000 000 000 000 000 000 000 000 000 000 000 000 001 001 001 001 004 004 010 015 014
000 000 000 000 000 000 000 000 000 000 000 000 000 000 000 000 000 000 000 000 000 000 000 000 000 001 002 003 007 009 006
000 000 000 000 -99 000 000 000 000 000 000 000 000 000 000 000 000 000 000 000 000 000 000 000 000 000 000 002 004 006 005
000 000 000 000 000 000 000 000 000 000 000 000 000 000 000 000 000 000 000 000 000 000 000 000 000 000 000 000 003 003 003
000 000 000 000 000 000 000 000 000 000 000 000 000 000 000 000 000 000 000 000 000 000 000 000 000 000 000 000 002 002 006
000 000 000 000 000 000 000 000 000 000 000 000 000 000 000 000 000 000 000 000 000 000 -99 000 000 000 000 000 002 002 006
000 000 000 000 000 000 000 000 000 000 000 000 000 000 000 000 000 000 000 000 -99 -99 -99 000 000 -99 000 000 -99 000 007
000 000 000 000 000 000 000 -99 -99 -99 000 000 000 000 000 000 000 000 000 000 -99 -99 000 -99 000 000 000 -99 -99 001 004
000 000 000 000 000 000 -99 -99 -99 -99 -99 000 000 000 000 -99 -99 000 -99 -99 -99 -99 000 000 000 000 -99 -99 -99 001 001
001 000 000 -99 -99 -99 -99 -99 -99 -99 -99 -99 000 000 000 -99 -99 -99 -99 -99 -99 -99 000 000 000 000 -99 -99 -99 -99 001
001 000 000 000 000 000 000 -99 000 -99 -99 000 000 000 -99 -99 -99 -99 -99 -99 -99 000 000 000 000 000 -99 -99 -99 -99 000
000 000 000 000 000 000 000 -99 000 000 -99 -99 000 -99 -99 -99 -99 -99 000 000 -99 000 000 000 000 -99 -99 -99 -99 -99 002
000 000 000 000 000 000 000 -99 -99 -99 -99 -99 -99 -99 -99 -99 -99 000 000 000 000 000 000 001 000 -99 -99 -99 -99 -99 001
000 000 000 000 000 000 -99 -99 -99 -99 -99 -99 -99 -99 -99 -99 -99 000 000 -99 -99 000 000 000 -99 -99 -99 -99 -99 -99 001
000 000 000 000 000 -99 -99 -99 -99 -99 -99 -99 -99 -99 -99 -99 -99 000 000 -99 -99 -99 -99 -99 -99 -99 -99 -99 -99 000 001
-99 -99 000 -99 000 000 -99 -99 -99 -99 -99 -99 -99 -99 -99 -99 -99 000 -99 -99 -99 -99 -99 -99 -99 -99 -99 -99 -99 000 000
